31
mol_opt_freq_mod.log	Energy: -465709.1301786
C         -3.87372       -0.01727       -0.08001
C         -2.93296        0.87628        0.44025
C         -1.61913        0.46060        0.64455
C         -1.21818       -0.84382        0.31771
C         -2.18572       -1.73450       -0.17743
C         -3.49924       -1.32895       -0.38610
C          0.16087       -1.30139        0.52156
C          1.27647       -0.56445        0.34267
C          1.24649        0.79748       -0.27017
C          2.65674       -1.06098        0.66089
O         -5.18560        0.32403       -0.30086
H         -5.30314        1.26092       -0.06387
H         -3.22987        1.89062        0.70512
H         -0.90217        1.14930        1.08634
H         -1.89756       -2.75576       -0.42096
H         -4.24855       -2.01024       -0.77945
H          0.28576       -2.32790        0.87284
O          0.83923        1.06988       -1.38583
O          1.77759        1.71005        0.58666
C          1.90619        3.03015        0.01954
H          2.34959        3.63522        0.80827
H          0.92793        3.42001       -0.26679
H          2.55328        2.99874       -0.85836
H          3.07712       -0.46453        1.48108
H          2.60481       -2.10854        1.01181
N          3.51478       -0.86405       -0.50419
H          3.12356       -1.39117       -1.28523
C          4.88751       -1.29707       -0.26124
H          5.46859       -1.18168       -1.17932
H          4.97488       -2.34162        0.08085
H          5.33052       -0.65328        0.50393
