52
mol_opt.log	Energy: -577790.3311621
C          4.50809        1.02278       -0.29811
C          5.78328        0.50197       -0.46558
C          6.06673       -0.84440       -0.16727
C          5.00906       -1.65976        0.28388
C          3.71867       -1.18143        0.44341
C          3.43123        0.17954        0.11355
C          2.13404        0.78170        0.23953
C          0.89624        0.18360        0.15781
C         -0.33570        0.88066        0.30527
C         -1.51002        0.15166        0.13074
C         -2.82199        0.63682        0.23074
C         -3.93326       -0.16962        0.02828
C         -5.27640        0.24789        0.09145
C         -6.26898       -0.69871       -0.19384
C         -7.63278       -0.43226       -0.21838
H          6.57773        1.16030       -0.80470
H          5.22657       -2.69265        0.55555
H          2.13629        1.86187        0.36789
H          0.82674       -0.87323       -0.07920
H         -1.39831       -0.90694       -0.10965
H         -2.97469        1.68681        0.46492
H         -3.75258       -1.21802       -0.21287
H         -5.95014       -1.71540       -0.42436
H         -8.01581        0.56215       -0.00429
C          4.28364        2.47631       -0.64220
H          5.22243        2.93489       -0.96246
H          3.92080        3.04940        0.21851
H          3.55915        2.59768       -1.45337
C          2.69057       -2.13381        1.00301
H          2.02882       -1.64058        1.72032
H          3.19338       -2.95692        1.51799
H          2.06666       -2.57778        0.21917
N          7.31166       -1.38138       -0.35129
H          7.46815       -2.28647        0.07488
C          8.49277       -0.57040       -0.58716
H          9.35568       -1.23436       -0.64693
H          8.66520        0.16367        0.21016
H          8.40784       -0.04241       -1.54075
C         -0.32999        2.34928        0.63801
H          0.19212        2.52654        1.58291
H         -1.33319        2.76462        0.72789
H          0.19413        2.91415       -0.13967
C         -5.62423        1.68423        0.39277
H         -4.89536        2.13387        1.06790
H         -6.59734        1.77502        0.87779
H         -5.64453        2.27871       -0.52704
N         -8.56785       -1.33300       -0.50848
H         -8.26550       -2.27998       -0.72428
C        -10.00258       -1.07087       -0.53940
H        -10.17311       -0.02270       -0.29352
H        -10.51652       -1.69836        0.19242
H        -10.40147       -1.27416       -1.53583
