55
ret_6ring_opt.log	Energy: -568478.5264607
C         -4.50767        0.06668        0.95641
C         -5.35803       -1.19887        1.13018
H         -6.21539       -0.96055        1.77285
H         -4.76387       -1.95388        1.66404
C         -5.81211       -1.78287       -0.19786
H         -6.39703       -1.04622       -0.75916
H         -6.46837       -2.64553       -0.03647
C         -4.59333       -2.19887       -1.01093
H         -4.88245       -2.42769       -2.04469
H         -4.17879       -3.13684       -0.60821
C         -3.49016       -1.16883       -1.02868
C         -3.43283       -0.15704       -0.11234
C         -2.37335        0.84425       -0.11475
H         -2.68818        1.87280        0.05858
C         -1.03699        0.58419       -0.23562
H         -0.74559       -0.45804       -0.31705
C         -0.00775        1.58866       -0.27104
C          1.33479        1.21829       -0.31535
C          1.80115       -0.21652       -0.20027
C          2.36630        2.14867       -0.61017
H          2.10796        3.16481       -0.89507
C          3.70638        1.80671       -0.65361
H          4.42475        2.53382       -1.02757
C          4.18080        0.57333       -0.15309
C          5.54088        0.28739       -0.19657
H          6.20381        1.01677       -0.66234
C          6.11258       -0.87434        0.32608
H          5.49812       -1.63893        0.79491
C         -5.39838        1.25386        0.55745
H         -4.82021        2.17880        0.46115
H         -5.90399        1.07575       -0.39515
H         -6.15962        1.42365        1.32722
C         -3.84507        0.37351        2.30749
H         -3.30014        1.32284        2.29523
H         -4.61095        0.44030        3.08819
H         -3.14341       -0.42040        2.58489
C         -2.49489       -1.36970       -2.14219
H         -3.02551       -1.63191       -3.06354
H         -1.88632       -0.48519       -2.33656
H         -1.82100       -2.20814       -1.92172
C         -0.44427        3.03161       -0.27635
H          0.38585        3.73299       -0.21501
H         -1.03239        3.26017       -1.17068
H         -1.08245        3.22386        0.59192
C          3.15220       -0.30265        0.51347
H          3.03563        0.04019        1.55196
H          3.46486       -1.35007        0.55553
H          1.89551       -0.65129       -1.20603
H          1.08798       -0.82942        0.35446
C          8.03084       -2.35011        0.83517
H          8.74745       -2.08690        1.61580
H          7.25437       -2.98733        1.25795
H          8.54343       -2.88711        0.03439
N          7.40874       -1.13938        0.30343
H          8.02818       -0.44975       -0.11847
