54
Structure written with generic_io_molec
C          4.73682       -0.43439        0.73927
C          5.77192        0.63767        1.14277
H          6.63642        0.14012        1.60170
H          5.32864        1.28142        1.91539
C          6.18694        1.51724       -0.03164
H          6.61380        0.90052       -0.82938
H          6.96329        2.23161        0.26500
C          4.95882        2.25940       -0.55663
H          5.19446        2.78933       -1.48893
H          4.66774        3.04241        0.16199
C          3.75302        1.36946       -0.77469
C          3.60429        0.19329       -0.09238
C          2.41972       -0.64775       -0.22476
H          2.59933       -1.72099       -0.28837
C          1.12799       -0.21868       -0.13667
H          0.94589        0.84007        0.04167
C         -0.03020       -1.06496       -0.26260
C         -1.27125       -0.47030       -0.14762
H         -1.29017        0.60575        0.03138
C         -2.52558       -1.11873       -0.23896
H         -2.54515       -2.19094       -0.41666
C         -3.72401       -0.45045       -0.11249
H         -3.67085        0.62272        0.06474
C         -4.99424       -1.07912       -0.20011
C         -6.20570       -0.39951       -0.07182
H         -7.12330       -0.95521       -0.25923
C         -6.33992        0.94770        0.28065
H         -5.47149        1.57078        0.48397
C          5.41408       -1.54922       -0.07614
H          4.70555       -2.33888       -0.34698
H          5.85140       -1.16184       -0.99992
H          6.21068       -2.01328        0.51647
C          4.16635       -1.04360        2.02831
H          3.42864       -1.82654        1.82399
H          4.97571       -1.49371        2.61440
H          3.68692       -0.27381        2.64198
C          2.73701        1.94218       -1.72841
H          3.24566        2.55145       -2.48280
H          2.15426        1.17593       -2.24170
H          2.04015        2.61029       -1.20541
C          0.16504       -2.53550       -0.50984
H         -0.77446       -3.08262       -0.58818
H          0.72526       -2.69369       -1.43610
H          0.74527       -2.98133        0.30477
C         -5.07166       -2.56501       -0.44523
H         -6.10810       -2.90305       -0.48793
H         -4.58943       -2.82947       -1.39092
H         -4.56763       -3.11776        0.35305
C         -7.67980        2.97051        0.76045
H         -8.27149        3.04211        1.67546
H         -6.69967        3.41758        0.92652
H         -8.18852        3.50064       -0.04740
N         -7.50156        1.56623        0.39484
H         -8.34662        1.02607        0.21468
