54
Structure written with generic_io_molec                                                             
C          4.94298       -0.72470        0.56770
C          6.08834        0.14080        1.13442
H          6.91932       -0.51644        1.42258
H          5.73726        0.63071        2.05343
C          6.53914        1.22236        0.15827
H          6.87859        0.76545       -0.77711
H          7.38782        1.78768        0.55975
C          5.36601        2.15973       -0.12337
H          5.61564        2.86359       -0.92824
H          5.17274        2.78354        0.76420
C          4.07703        1.44168       -0.46450
C          3.83953        0.16494       -0.03170
C          2.58342       -0.52916       -0.28767
H          2.66569       -1.57934       -0.56785
C          1.33496       -0.02001       -0.07490
H          1.24880        0.99411        0.31248
C          0.10739       -0.72577       -0.32525
C         -1.07696       -0.06274       -0.05478
H         -0.99761        0.95448        0.33156
C         -2.38310       -0.57032       -0.22847
H         -2.50499       -1.56979       -0.63810
C         -3.51273        0.16455        0.06859
H         -3.37660        1.17582        0.45189
C         -4.84424       -0.29748       -0.08737
C         -5.87465        0.57318        0.25988
H         -5.59959        1.56017        0.63175
C         -7.23817        0.28289        0.16986
H         -7.59152       -0.67850       -0.19113
C          5.47908       -1.67688       -0.51507
H          4.68975       -2.32482       -0.91016
H          5.91105       -1.12700       -1.35514
H          6.25354       -2.32589       -0.09067
C          4.37341       -1.56209        1.72207
H          3.55846       -2.21639        1.39542
H          5.16168       -2.19722        2.14210
H          3.99385       -0.91547        2.52008
C          3.09136        2.28609       -1.22957
H          3.63244        2.99533       -1.86458
H          2.42567        1.69733       -1.86237
H          2.47437        2.88548       -0.54724
C          0.16758       -2.12977       -0.86099
H         -0.81816       -2.56946       -1.01310
H          0.69642       -2.14886       -1.81849
H          0.71880       -2.77472       -0.16874
C         -5.08852       -1.68648       -0.61835
H         -6.14502       -1.93704       -0.70186
H         -4.64509       -1.79405       -1.61265
H         -4.62334       -2.42857        0.03720
C         -9.63014        0.85851        0.42534
H        -10.10626        1.57629       -0.24590
H         -9.77488       -0.14980        0.03745
H        -10.07919        0.93233        1.41799
N         -8.19605        1.13075        0.50737
H         -7.92017        2.04880        0.85297
