54
Structure written with generic_io_molec                                                             
C         -4.70636        0.29041        0.78685
C         -5.60711       -0.89760        1.18702
H         -6.51209       -0.50800        1.67154
H         -5.07954       -1.50170        1.93841
C         -5.94597       -1.79638        0.00259
H         -6.45808       -1.21725       -0.77285
H         -6.62926       -2.60012        0.29947
C         -4.65388       -2.38363       -0.56346
H         -4.84914       -2.92049       -1.50112
H         -4.25830       -3.14068        0.13270
C         -3.56289       -1.35769       -0.78856
C         -3.52293       -0.19347       -0.06970
C         -2.45048        0.78297       -0.21643
H         -2.75438        1.82974       -0.22436
C         -1.11427        0.50442       -0.20713
H         -0.80510       -0.53247       -0.08380
C         -0.06824        1.48229       -0.34918
C          1.23716        1.02042       -0.31674
H          1.35424       -0.04877       -0.18174
C          2.39145        1.83071       -0.44448
H          2.21347        2.88001       -0.67031
C          3.73634        1.49620       -0.42959
H          4.39781        2.27027       -0.81585
C          4.39685        0.31518        0.00407
C          5.78519        0.29890       -0.12008
H          6.26785        1.18300       -0.53660
C          6.61446       -0.76353        0.24747
H          6.20771       -1.70671        0.60322
C         -5.51743        1.33323       -0.00132
H         -4.90708        2.20202       -0.26894
H         -5.92229        0.91251       -0.92531
H         -6.35217        1.69547        0.60950
C         -4.18869        0.94139        2.07775
H         -3.54763        1.80601        1.87660
H         -5.03473        1.28839        2.68187
H         -3.61626        0.22204        2.67262
C         -2.52305       -1.78247       -1.79264
H         -2.98664       -2.42125       -2.55165
H         -2.04739       -0.94015       -2.29710
H         -1.73851       -2.38427       -1.31533
C         -0.44837        2.92716       -0.52180
H          0.41041        3.58952       -0.62048
H         -1.07855        3.05115       -1.40743
H         -1.02788        3.26633        0.34316
C          3.62469       -0.88220        0.48571
H          4.26308       -1.73496        0.71671
H          3.07353       -0.62982        1.39520
H          2.89926       -1.20117       -0.26997
C          8.83282       -1.80845        0.57284
H          9.48731       -1.48678        1.38563
H          8.23446       -2.65681        0.90502
H          9.43665       -2.10577       -0.28707
N          7.93567       -0.71717        0.19648
H          8.37011        0.14474       -0.13021
