61
Structure written with generic_io_molec
C         -4.35204       -0.55299        1.22281
C         -5.29924       -1.71799        0.86540
H         -5.89741       -1.97257        1.75022
H         -4.69393       -2.60334        0.62540
C         -6.18070       -1.40149       -0.33794
H         -6.78042       -0.50741       -0.13817
H         -6.88560       -2.21668       -0.53693
C         -5.29140       -1.16256       -1.55719
H         -5.88396       -0.79033       -2.40328
H         -4.86621       -2.12129       -1.89528
C         -4.13554       -0.21827       -1.29821
C         -3.64022       -0.02770       -0.03624
C         -2.51325        0.85585        0.23644
H         -2.59748        1.47752        1.12784
C         -1.32081        0.84258       -0.43177
H         -1.21205        0.11440       -1.22875
C         -0.21798        1.72195       -0.14715
C          1.06810        1.41001       -0.58820
C          1.30677        0.21256       -1.49472
C          2.16073        2.28975       -0.30037
H          1.94690        3.35636       -0.23156
C          3.49087        1.94007       -0.23504
H          4.22182        2.73409       -0.38783
C          4.00827        0.67355        0.15154
C          5.38006        0.47083        0.01054
H          5.98582        1.28506       -0.38719
C          6.03028       -0.71818        0.34942
H          5.47680       -1.56440        0.75107
C         -5.14014        0.59111        1.88340
H         -4.48401        1.41743        2.17605
H         -5.90293        0.99279        1.21148
H         -5.63479        0.22797        2.79146
C         -3.31661       -1.08137        2.22622
H         -2.61205       -0.30419        2.54016
H         -3.82559       -1.45185        3.12336
H         -2.74393       -1.90760        1.79216
C         -3.57122        0.41116       -2.54532
H         -4.36976        0.54248       -3.28297
H         -3.10937        1.38244       -2.36224
H         -2.82163       -0.24238       -3.01062
C         -0.49809        2.93543        0.70133
H          0.38996        3.54011        0.88527
H         -1.25783        3.56578        0.23219
H         -0.88138        2.63144        1.68210
C          3.14233       -0.37169        0.81894
H          3.74197       -0.81550        1.62045
H          2.29574        0.11411        1.31525
C          2.62983       -1.49576       -0.10728
H          3.40278       -1.73666       -0.84744
H          2.47666       -2.40044        0.49207
C          1.31625       -1.16339       -0.81124
H          1.12561       -1.94000       -1.56068
H          0.48874       -1.21266       -0.09280
H          2.23711        0.36061       -2.05486
H          0.50885        0.22407       -2.24448
C          8.03607       -2.14802        0.56403
H          8.78864       -1.94277        1.32821
H          7.31484       -2.86774        0.95125
H          8.51974       -2.56139       -0.32347
N          7.33164       -0.91585        0.21754
H          7.89386       -0.15193       -0.15488
