58
Structure written with generic_io_molec
C         -5.00826        0.57742        0.43912
C         -6.03729       -0.41816        1.01564
H         -6.95490        0.12896        1.26900
H         -5.64211       -0.82823        1.95561
C         -6.31834       -1.57859        0.06749
H         -6.69367       -1.19918       -0.88860
H         -7.09350       -2.23983        0.47112
C         -5.02504       -2.35942       -0.16077
H         -5.15948       -3.11117       -0.94965
H         -4.77453       -2.92865        0.74889
C         -3.83150       -1.48668       -0.49372
C         -3.78347       -0.17127       -0.11779
C         -2.63946        0.68871       -0.40013
H         -2.87827        1.70572       -0.70774
C         -1.33361        0.35806       -0.16765
H         -1.14752       -0.66407        0.14177
C         -0.20733        1.24704       -0.30005
C          1.09148        0.72363       -0.23180
C          1.27557       -0.68890        0.29459
C          2.16157        1.52846       -0.70975
H          1.86231        2.50939       -1.06705
C          3.52876        1.33896       -0.82442
H          4.04377        2.12699       -1.37386
C          4.34959        0.26446       -0.41040
C          5.70948        0.53306       -0.25375
H          6.05292        1.54704       -0.45866
C          6.67049       -0.39709        0.14631
H          6.40505       -1.42751        0.36851
C         -5.64753        1.41713       -0.68011
H         -4.94573        2.15460       -1.08330
H         -5.98637        0.79062       -1.50918
H         -6.50977        1.96728       -0.28644
C         -4.57795        1.51653        1.57538
H         -3.85380        2.26653        1.24059
H         -5.45241        2.04990        1.96525
H         -4.12814        0.95052        2.39777
C         -2.71892       -2.22119       -1.19555
H         -3.14213       -3.01540       -1.81937
H         -2.11424       -1.57181       -1.83029
H         -2.05444       -2.71268       -0.47277
C         -0.48911        2.69425       -0.63021
H          0.27693        3.36877       -0.24487
H         -0.56202        2.85531       -1.71185
H         -1.42942        3.01029       -0.17849
C          3.76543       -1.09554       -0.16882
H          4.54228       -1.78684        0.16445
H          3.37989       -1.49852       -1.11583
C          2.63266       -1.06500        0.87530
H          2.52049       -2.07609        1.28298
H          2.90460       -0.42009        1.71742
H          1.03918       -1.40455       -0.50250
H          0.52546       -0.85298        1.07807
C          8.98548       -1.06576        0.70367
H          9.46176       -0.71908        1.62315
H          8.51792       -2.03398        0.88263
H          9.73766       -1.16737       -0.08142
N          7.95655       -0.11579        0.28729
H          8.25986        0.83610        0.09173
