52
ret_5ring_opt_freq.log	Energy: -543986.2044188
C         -3.98161        0.04595        0.74044
C         -4.65949       -1.29528        1.05116
H         -5.61052       -1.09816        1.56238
H         -4.03100       -1.85401        1.75896
C         -4.86991       -2.14398       -0.19245
H         -5.48327       -1.60572       -0.92305
H         -5.41277       -3.06334        0.05434
C         -3.51890       -2.48454       -0.80770
H         -3.65172       -2.91444       -1.80882
H         -3.02652       -3.27108       -0.21366
C         -2.57783       -1.30802       -0.90185
C         -2.77072       -0.16942       -0.17286
C         -1.86917        0.97457       -0.25250
H         -2.34054        1.95639       -0.29516
C         -0.50637        0.91651       -0.19946
H         -0.04985       -0.06178       -0.06851
C          0.36082        2.06129       -0.26511
C          1.73005        1.88303       -0.17854
C          2.73975        2.87894       -0.22468
H          2.56305        3.94442       -0.33485
C          4.00314        2.32282       -0.11141
H          4.93651        2.87742       -0.11947
C          3.90502        0.91763        0.01700
C          4.98412        0.05402        0.15119
H          5.98942        0.47314        0.15975
C          4.82709       -1.32508        0.27562
H          3.83095       -1.76524        0.27011
C         -4.97846        1.00072        0.06461
H         -4.52940        1.97904       -0.13595
H         -5.34093        0.59884       -0.88509
H         -5.83951        1.16593        0.72189
C         -3.52838        0.66101        2.07269
H         -3.12478        1.67073        1.94646
H         -4.38068        0.72767        2.75788
H         -2.75880        0.04119        2.54511
C         -1.44186       -1.51923       -1.86965
H         -1.81978       -1.99997       -2.77808
H         -0.94581       -0.59000       -2.15473
H         -0.68780       -2.19847       -1.44944
C         -0.24664        3.42904       -0.42359
H          0.50336        4.21822       -0.46392
H         -0.83977        3.47991       -1.34176
H         -0.91719        3.64604        0.41420
C          2.43891        0.55085       -0.01840
H          2.21561       -0.12394       -0.85454
H          2.13240        0.04346        0.90510
C          5.66631       -3.63755        0.53821
H          6.08990       -3.97221        1.48739
H          4.60430       -3.88109        0.51173
H          6.17342       -4.14282       -0.28636
N          5.82080       -2.19070        0.40640
H          6.77107       -1.82492        0.41695
