54
Structure written with generic_io_molec                                                             
C         -4.59053        0.02150        0.75030
C         -5.21014       -1.33364        1.15414
H         -6.18522       -1.15113        1.62473
H         -4.57115       -1.79899        1.91768
C         -5.32591       -2.29568       -0.02379
H         -5.94672       -1.85264       -0.80946
H         -5.81472       -3.22972        0.27564
C         -3.92951       -2.58267       -0.57385
H         -3.99087       -3.15813       -1.50692
H         -3.38084       -3.22510        0.13362
C         -3.09708       -1.33737       -0.80328
C         -3.31496       -0.19551       -0.08253
C         -2.48423        0.99573       -0.23024
H         -3.01132        1.94887       -0.27304
C         -1.12171        1.01372       -0.19983
H         -0.61705        0.06783       -0.02041
C         -0.32587        2.20474       -0.34695
C          1.05754        2.18706       -0.31082
H          1.57338        3.13857       -0.43975
C          1.87787        1.04682       -0.13224
H          1.40435        0.07269       -0.02933
C          3.25381        1.11823       -0.10841
H          3.71561        2.09766       -0.23313
C          4.12066        0.00731        0.06715
C          5.49077        0.25307        0.06707
H          5.82091        1.28312       -0.06750
C          6.48271       -0.71905        0.22641
H          6.23380       -1.76700        0.36527
C         -5.60006        0.84873       -0.06407
H         -5.19402        1.82886       -0.33499
H         -5.88511        0.33854       -0.98772
H         -6.50482        1.02191        0.52968
C         -4.25269        0.78591        2.03861
H         -3.81699        1.76932        1.83360
H         -5.16470        0.94193        2.62604
H         -3.54414        0.21930        2.65174
C         -1.99909       -1.51437       -1.81964
H         -2.31489       -2.23908       -2.57733
H         -1.73185       -0.58490       -2.32450
H         -1.09404       -1.92605       -1.35391
C         -1.01559        3.52762       -0.54481
H         -0.28990        4.33830       -0.63772
H         -1.63292        3.51585       -1.44913
H         -1.67497        3.75366        0.29968
C          3.53342       -1.37298        0.21172
H          4.28565       -2.15358        0.31560
H          2.88569       -1.41666        1.09227
H          2.92448       -1.61728       -0.66369
C          8.84102       -1.44600        0.38603
H          9.44063       -1.20359        1.26590
H          8.38852       -2.42907        0.51615
H          9.47865       -1.45487       -0.50043
N          7.77818       -0.45555        0.22226
H          8.06712        0.51334        0.09523
